Welcome to the CBC MILP Solver 
Version: 2.10.7 
Build Date: Feb 14 2022 

command line - cbc new_inputs/order/dag39_down_left_input.lp sec 1800 solve solu no_transitive/dag39_down_left_input.lp (default strategy 1)
seconds was changed from 1e+100 to 1800
Continuous objective value is 644859 - 23.17 seconds
Cgl0002I 196 variables fixed
Cgl0003I 0 fixed, 27 tightened bounds, 2425 strengthened rows, 0 substitutions
Cgl0003I 0 fixed, 4 tightened bounds, 928 strengthened rows, 0 substitutions
Cgl0003I 0 fixed, 0 tightened bounds, 123 strengthened rows, 0 substitutions
Cgl0003I 0 fixed, 0 tightened bounds, 4 strengthened rows, 0 substitutions
Cgl0004I processed model has 12070 rows, 4119 columns (4119 integer (4063 of which binary)) and 39792 elements
Cutoff increment increased from 1e-05 to 0.9999
Cbc0045I 1 integer variables out of 4119 objects (4119 integer) have cost of 1 - high priority
Cbc0045I branch on satisfied Y create fake objective Y random cost Y
Cbc0038I Initial state - 2025 integers unsatisfied sum - 534.487
Cbc0038I Pass   1: (48.60 seconds) suminf.  248.67055 (2102) obj. 944688 iterations 6517
Cbc0038I Pass   2: (49.92 seconds) suminf.  185.27914 (2027) obj. 1.14226e+06 iterations 2620
Cbc0038I Pass   3: (51.13 seconds) suminf.  151.37316 (2099) obj. 1.27005e+06 iterations 2201
Cbc0038I Pass   4: (51.63 seconds) suminf.  146.24611 (2087) obj. 1.30785e+06 iterations 889
Cbc0038I Pass   5: (51.80 seconds) suminf.  144.77647 (2074) obj. 1.31196e+06 iterations 250
Cbc0038I Pass   6: (51.91 seconds) suminf.  144.00565 (2086) obj. 1.31126e+06 iterations 154
Cbc0038I Pass   7: (53.29 seconds) suminf.  128.13476 (2110) obj. 1.22678e+06 iterations 2621
Cbc0038I Pass   8: (53.67 seconds) suminf.  126.93539 (2108) obj. 1.22715e+06 iterations 599
Cbc0038I Pass   9: (54.30 seconds) suminf.  128.52270 (2115) obj. 1.22844e+06 iterations 1100
Cbc0038I Pass  10: (54.51 seconds) suminf.  127.97091 (2108) obj. 1.23549e+06 iterations 289
Cbc0038I Pass  11: (55.10 seconds) suminf.  126.50653 (2085) obj. 1.24867e+06 iterations 1048
Cbc0038I Pass  12: (55.41 seconds) suminf.  127.13716 (2104) obj. 1.30998e+06 iterations 482
Cbc0038I Pass  13: (56.00 seconds) suminf.  127.96383 (2111) obj. 1.32004e+06 iterations 1049
Cbc0038I Pass  14: (56.18 seconds) suminf.  126.97731 (2124) obj. 1.31764e+06 iterations 260
Cbc0038I Pass  15: (56.36 seconds) suminf.  127.11231 (2122) obj. 1.31818e+06 iterations 260
Cbc0038I Pass  16: (56.95 seconds) suminf.  126.36393 (2127) obj. 1.30937e+06 iterations 1067
Cbc0038I Pass  17: (56.98 seconds) suminf.  126.48874 (2130) obj. 1.31253e+06 iterations 25
Cbc0038I Pass  18: (57.29 seconds) suminf.  126.19713 (2110) obj. 1.3096e+06 iterations 478
Cbc0038I Pass  19: (57.60 seconds) suminf.  125.51962 (2111) obj. 1.31118e+06 iterations 484
Cbc0038I Pass  20: (57.86 seconds) suminf.  126.29149 (2129) obj. 1.31593e+06 iterations 383
Cbc0038I Pass  21: (57.89 seconds) suminf.  126.30201 (2128) obj. 1.31628e+06 iterations 22
Cbc0038I Pass  22: (58.20 seconds) suminf.  126.05418 (2118) obj. 1.31458e+06 iterations 482
Cbc0038I Pass  23: (58.52 seconds) suminf.  125.68141 (2111) obj. 1.31775e+06 iterations 472
Cbc0038I Pass  24: (58.82 seconds) suminf.  125.96184 (2125) obj. 1.30823e+06 iterations 472
Cbc0038I Pass  25: (58.87 seconds) suminf.  126.19517 (2125) obj. 1.30834e+06 iterations 66
Cbc0038I Pass  26: (59.21 seconds) suminf.  125.74755 (2115) obj. 1.31536e+06 iterations 531
Cbc0038I Pass  27: (60.73 seconds) suminf.  142.98673 (2061) obj. 1.31767e+06 iterations 2921
Cbc0038I Pass  28: (61.88 seconds) suminf.  119.02768 (2108) obj. 1.34775e+06 iterations 2079
Cbc0038I Pass  29: (62.40 seconds) suminf.  116.56885 (2112) obj. 1.34466e+06 iterations 863
Cbc0038I Pass  30: (62.78 seconds) suminf.  115.48457 (2128) obj. 1.34203e+06 iterations 547
Cbc0038I Pass  31: (62.83 seconds) suminf.  115.54614 (2125) obj. 1.34217e+06 iterations 59
Cbc0038I Pass  32: (63.42 seconds) suminf.  115.94167 (2140) obj. 1.32902e+06 iterations 991
Cbc0038I Pass  33: (63.49 seconds) suminf.  115.61918 (2144) obj. 1.32917e+06 iterations 74
Cbc0038I Pass  34: (64.08 seconds) suminf.  118.01930 (2098) obj. 1.33071e+06 iterations 998
Cbc0038I Pass  35: (64.33 seconds) suminf.  118.19667 (2125) obj. 1.32896e+06 iterations 352
Cbc0038I Pass  36: (64.93 seconds) suminf.  117.18184 (2107) obj. 1.32959e+06 iterations 1018
Cbc0038I Pass  37: (65.20 seconds) suminf.  116.73806 (2103) obj. 1.33178e+06 iterations 362
Cbc0038I Pass  38: (65.74 seconds) suminf.  117.91551 (2101) obj. 1.32839e+06 iterations 823
Cbc0038I Pass  39: (66.04 seconds) suminf.  117.47520 (2088) obj. 1.32556e+06 iterations 419
Cbc0038I Pass  40: (66.46 seconds) suminf.  117.31232 (2103) obj. 1.33012e+06 iterations 654
Cbc0038I Pass  41: (66.68 seconds) suminf.  116.91059 (2114) obj. 1.33252e+06 iterations 276
Cbc0038I Pass  42: (67.24 seconds) suminf.  115.05738 (2093) obj. 1.33155e+06 iterations 912
Cbc0038I Pass  43: (67.53 seconds) suminf.  114.42668 (2088) obj. 1.32914e+06 iterations 382
Cbc0038I Pass  44: (67.75 seconds) suminf.  115.49055 (2104) obj. 1.33212e+06 iterations 282
Cbc0038I Pass  45: (68.41 seconds) suminf.  117.57001 (2116) obj. 1.33165e+06 iterations 1186
Cbc0038I Pass  46: (68.69 seconds) suminf.  117.08273 (2110) obj. 1.33206e+06 iterations 411
Cbc0038I Pass  47: (69.12 seconds) suminf.  117.46147 (2094) obj. 1.32842e+06 iterations 644
Cbc0038I Pass  48: (69.37 seconds) suminf.  117.47520 (2088) obj. 1.32556e+06 iterations 366
Cbc0038I Pass  49: (69.80 seconds) suminf.  116.70447 (2104) obj. 1.3327e+06 iterations 645
Cbc0038I Pass  50: (70.08 seconds) suminf.  116.91059 (2114) obj. 1.33252e+06 iterations 407
Cbc0038I Pass  51: (70.51 seconds) suminf.  117.29587 (2085) obj. 1.32861e+06 iterations 643
Cbc0038I Pass  52: (71.93 seconds) suminf.  149.73936 (2085) obj. 1.39273e+06 iterations 2561
Cbc0038I Pass  53: (72.95 seconds) suminf.  127.91238 (2020) obj. 1.4071e+06 iterations 1815
Cbc0038I Pass  54: (73.39 seconds) suminf.  125.77491 (2077) obj. 1.40463e+06 iterations 770
Cbc0038I Pass  55: (73.60 seconds) suminf.  125.01389 (2057) obj. 1.40468e+06 iterations 280
Cbc0038I Pass  56: (73.70 seconds) suminf.  124.57489 (2050) obj. 1.4021e+06 iterations 153
Cbc0038I Pass  57: (74.29 seconds) suminf.  124.17908 (2056) obj. 1.4078e+06 iterations 1073
Cbc0038I Pass  58: (74.63 seconds) suminf.  123.08762 (2063) obj. 1.40515e+06 iterations 551
Cbc0038I Pass  59: (75.24 seconds) suminf.  121.30549 (2070) obj. 1.40431e+06 iterations 1038
Cbc0038I Pass  60: (75.60 seconds) suminf.  121.33108 (2114) obj. 1.4017e+06 iterations 523
Cbc0038I Pass  61: (76.03 seconds) suminf.  121.95911 (2073) obj. 1.40425e+06 iterations 661
Cbc0038I Pass  62: (76.28 seconds) suminf.  121.04119 (2079) obj. 1.40422e+06 iterations 337
Cbc0038I Pass  63: (76.69 seconds) suminf.  122.25621 (2059) obj. 1.40437e+06 iterations 602
Cbc0038I Pass  64: (76.98 seconds) suminf.  121.06683 (2081) obj. 1.40172e+06 iterations 385
Cbc0038I Pass  65: (77.29 seconds) suminf.  121.65226 (2066) obj. 1.40415e+06 iterations 536
Cbc0038I Pass  66: (78.82 seconds) suminf.  138.01565 (2100) obj. 1.60237e+06 iterations 2792
Cbc0038I Pass  67: (80.46 seconds) suminf.  114.33350 (2127) obj. 1.66942e+06 iterations 2889
Cbc0038I Pass  68: (80.81 seconds) suminf.  113.79214 (2134) obj. 1.66436e+06 iterations 489
Cbc0038I Pass  69: (81.35 seconds) suminf.  113.22791 (2131) obj. 1.66584e+06 iterations 861
Cbc0038I Pass  70: (81.70 seconds) suminf.  113.44667 (2141) obj. 1.66638e+06 iterations 518
Cbc0038I Pass  71: (82.07 seconds) suminf.  113.69050 (2150) obj. 1.67128e+06 iterations 568
Cbc0038I Pass  72: (82.39 seconds) suminf.  113.45509 (2130) obj. 1.66838e+06 iterations 442
Cbc0038I Pass  73: (82.75 seconds) suminf.  113.80189 (2144) obj. 1.66567e+06 iterations 489
Cbc0038I Pass  74: (84.45 seconds) suminf.  143.80112 (1948) obj. 1.60538e+06 iterations 2952
Cbc0038I Pass  75: (86.20 seconds) suminf.  115.07305 (2114) obj. 1.63676e+06 iterations 2830
Cbc0038I Pass  76: (86.34 seconds) suminf.  114.49294 (2103) obj. 1.63629e+06 iterations 169
Cbc0038I Pass  77: (86.53 seconds) suminf.  114.00283 (2107) obj. 1.63561e+06 iterations 269
Cbc0038I Pass  78: (86.57 seconds) suminf.  113.99142 (2100) obj. 1.63715e+06 iterations 34
Cbc0038I Pass  79: (87.31 seconds) suminf.  114.79651 (2118) obj. 1.63724e+06 iterations 1251
Cbc0038I Pass  80: (87.67 seconds) suminf.  113.66530 (2088) obj. 1.64649e+06 iterations 525
Cbc0038I Pass  81: (88.33 seconds) suminf.  116.62801 (2114) obj. 1.6491e+06 iterations 1056
Cbc0038I Pass  82: (88.49 seconds) suminf.  116.65175 (2117) obj. 1.64712e+06 iterations 196
Cbc0038I Pass  83: (88.90 seconds) suminf.  116.13604 (2094) obj. 1.64352e+06 iterations 618
Cbc0038I Pass  84: (89.17 seconds) suminf.  114.19732 (2112) obj. 1.64514e+06 iterations 338
Cbc0038I Pass  85: (89.36 seconds) suminf.  115.96796 (2114) obj. 1.64316e+06 iterations 226
Cbc0038I Pass  86: (90.69 seconds) suminf.  131.06096 (2027) obj. 1.71676e+06 iterations 2432
Cbc0038I Pass  87: (91.60 seconds) suminf.  116.93690 (2033) obj. 1.67464e+06 iterations 1693
Cbc0038I Pass  88: (92.03 seconds) suminf.  115.88313 (2056) obj. 1.67513e+06 iterations 637
Cbc0038I Pass  89: (92.20 seconds) suminf.  115.41869 (2048) obj. 1.67549e+06 iterations 199
Cbc0038I Pass  90: (92.66 seconds) suminf.  115.60503 (2052) obj. 1.6754e+06 iterations 749
Cbc0038I Pass  91: (92.97 seconds) suminf.  114.00624 (2043) obj. 1.67499e+06 iterations 489
Cbc0038I Pass  92: (93.24 seconds) suminf.  114.75964 (2059) obj. 1.67738e+06 iterations 373
Cbc0038I Pass  93: (93.46 seconds) suminf.  113.39872 (2054) obj. 1.67856e+06 iterations 286
Cbc0038I Pass  94: (93.94 seconds) suminf.  116.31722 (2068) obj. 1.67934e+06 iterations 767
Cbc0038I Pass  95: (94.26 seconds) suminf.  114.76581 (2069) obj. 1.67682e+06 iterations 451
Cbc0038I Pass  96: (94.54 seconds) suminf.  114.55248 (2097) obj. 1.67628e+06 iterations 363
Cbc0038I Pass  97: (94.77 seconds) suminf.  116.02097 (2112) obj. 1.67911e+06 iterations 291
Cbc0038I Pass  98: (96.28 seconds) suminf.  141.38642 (2018) obj. 1.65329e+06 iterations 2684
Cbc0038I Pass  99: (97.64 seconds) suminf.  117.19102 (2046) obj. 1.67438e+06 iterations 2479
Cbc0038I Pass 100: (99.57 seconds) suminf.  136.19884 (2088) obj. 1.61799e+06 iterations 3279
Cbc0038I No solution found this major pass
Cbc0038I Before mini branch and bound, 489 integers at bound fixed and 0 continuous
Cbc0038I Full problem 12070 rows 4119 columns, reduced to 10828 rows 3576 columns - too large
Cbc0038I Mini branch and bound did not improve solution (100.30 seconds)
Cbc0038I After 100.30 seconds - Feasibility pump exiting - took 55.60 seconds
Cbc0031I 71 added rows had average density of 6.056338
Cbc0013I At root node, 71 cuts changed objective from 647394.55 to 780464.77 in 10 passes
Cbc0014I Cut generator 0 (Probing) - 40 row cuts average 3.1 elements, 2 column cuts (2 active)  in 0.432 seconds - new frequency is 1
Cbc0014I Cut generator 1 (Gomory) - 135 row cuts average 6.8 elements, 0 column cuts (0 active)  in 1.600 seconds - new frequency is 1
Cbc0014I Cut generator 2 (Knapsack) - 1 row cuts average 42.0 elements, 0 column cuts (0 active)  in 0.031 seconds - new frequency is -100
Cbc0014I Cut generator 3 (Clique) - 0 row cuts average 0.0 elements, 0 column cuts (0 active)  in 0.117 seconds - new frequency is -100
Cbc0014I Cut generator 4 (MixedIntegerRounding2) - 0 row cuts average 0.0 elements, 0 column cuts (0 active)  in 0.043 seconds - new frequency is -100
Cbc0014I Cut generator 5 (FlowCover) - 0 row cuts average 0.0 elements, 0 column cuts (0 active)  in 0.027 seconds - new frequency is -100
Cbc0014I Cut generator 6 (TwoMirCuts) - 185 row cuts average 10.5 elements, 0 column cuts (0 active)  in 1.458 seconds - new frequency is 1
Cbc0010I After 0 nodes, 1 on tree, 1e+50 best solution, best possible 780464.77 (126.24 seconds)
Cbc0010I After 100 nodes, 8 on tree, 1e+50 best solution, best possible 780464.77 (856.02 seconds)
Cbc0020I Exiting on maximum time
Cbc0005I Partial search - best objective 1e+50 (best possible 780464.77), took 1761039 iterations and 166 nodes (1780.25 seconds)
Cbc0032I Strong branching done 1246 times (119412 iterations), fathomed 2 nodes and fixed 36 variables
Cbc0035I Maximum depth 51, 0 variables fixed on reduced cost
Cuts at root node changed objective from 647395 to 780465
Probing was tried 142 times and created 1103 cuts of which 0 were active after adding rounds of cuts (1.073 seconds)
Gomory was tried 138 times and created 280 cuts of which 0 were active after adding rounds of cuts (7.848 seconds)
Knapsack was tried 10 times and created 1 cuts of which 0 were active after adding rounds of cuts (0.031 seconds)
Clique was tried 10 times and created 0 cuts of which 0 were active after adding rounds of cuts (0.117 seconds)
MixedIntegerRounding2 was tried 10 times and created 0 cuts of which 0 were active after adding rounds of cuts (0.043 seconds)
FlowCover was tried 10 times and created 0 cuts of which 0 were active after adding rounds of cuts (0.027 seconds)
TwoMirCuts was tried 138 times and created 2359 cuts of which 0 were active after adding rounds of cuts (3.320 seconds)
ZeroHalf was tried 1 times and created 0 cuts of which 0 were active after adding rounds of cuts (0.303 seconds)

Result - Stopped on time limit

No feasible solution found
Lower bound:                    780464.775
Enumerated nodes:               166
Total iterations:               1761039
Time (CPU seconds):             1780.25
Time (Wallclock seconds):       1780.92

Total time (CPU seconds):       1780.29   (Wallclock seconds):       1780.97

